
Gurobi 6.0.4 (win64) logging started 06/16/15 20:46:08

Read LP format model from file E:\Eigene Dateien\Downloads\Michi shit\VRPTWMS-master\VRPTWMS\instances\mip\fuel\N10-C_DV100-C_SV25_F5_5_No_1.lp
Reading time = 0.02 seconds
(null): 621 rows, 298 columns, 2643 nonzeros
Optimize a model with 621 rows, 298 columns and 2643 nonzeros
Model has 1100 quadratic constraints
WARNING: Only barrier available for SOCP models
Coefficient statistics:
  Matrix range    [1e+00, 1e+06]
  Objective range [3e+04, 1e+07]
  Bounds range    [1e+00, 1e+06]
  RHS range       [1e+00, 1e+06]
Presolve removed 46 rows and 30 columns
Presolve time: 0.11s
Presolved: 2572 rows, 1304 columns, 12721 nonzeros
Variable types: 961 continuous, 343 integer (290 binary)
Found heuristic solution: objective 1.035572e+08
Optimize a model with 2572 rows, 1304 columns and 12721 nonzeros
Coefficient statistics:
  Matrix range    [1e+00, 1e+06]
  Objective range [3e+04, 1e+07]
  Bounds range    [1e+00, 1e+06]
  RHS range       [1e+00, 1e+06]

Concurrent LP optimizer: dual simplex and barrier
Showing barrier log only...

Presolve removed 182 rows and 125 columns
Presolved: 2390 rows, 1180 columns, 11849 nonzeros

Root barrier log...

Ordering time: 0.02s

Barrier performed 0 iterations in 0.14 seconds
Barrier solve interrupted - model solved by another algorithm


Solved with dual simplex
Solved in 112 iterations and 0.14 seconds
Optimal objective  1.984900745e+06

Root relaxation: objective 1.984901e+06, 112 iterations, 0.03 seconds

    Nodes    |    Current Node    |     Objective Bounds      |     Work
 Expl Unexpl |  Obj  Depth IntInf | Incumbent    BestBd   Gap | It/Node Time

     0     0 1984900.75    0   37 1.0356e+08 1984900.75  98.1%     -    0s
     0     0 3170003.84    0   54 1.0356e+08 3170003.84  96.9%     -    0s
H    0     0                    9.349940e+07 3170003.84  96.6%     -    0s
     0     0 9305178.84    0   46 9.3499e+07 9305178.84  90.0%     -    0s
H    0     0                    9.340490e+07 9305178.84  90.0%     -    0s
H    0     0                    5.439280e+07 9305178.84  82.9%     -    0s
     0     0 9628563.05    0   54 5.4393e+07 9628563.05  82.3%     -    0s
     0     0 9946760.51    0   50 5.4393e+07 9946760.51  81.7%     -    0s
     0     0 9978694.92    0   51 5.4393e+07 9978694.92  81.7%     -    0s
     0     0 9994741.66    0   53 5.4393e+07 9994741.66  81.6%     -    0s
     0     0 1.0010e+07    0   56 5.4393e+07 1.0010e+07  81.6%     -    0s
     0     0 1.0011e+07    0   50 5.4393e+07 1.0011e+07  81.6%     -    0s
     0     0 1.0011e+07    0   50 5.4393e+07 1.0011e+07  81.6%     -    0s
     0     0 1.0011e+07    0   50 5.4393e+07 1.0011e+07  81.6%     -    0s
     0     2 1.0011e+07    0   50 5.4393e+07 1.0011e+07  81.6%     -    0s
H  101   101                    4.346750e+07 1.0772e+07  75.2%  31.4    0s
*  196   168              56    4.306350e+07 1.0772e+07  75.0%  31.0    0s
H  200   168                    4.292130e+07 1.0772e+07  74.9%  30.4    0s
H  212   183                    4.275420e+07 1.0772e+07  74.8%  31.5    0s
H  375   286                    4.257610e+07 1.0918e+07  74.4%  31.2    0s
H  394   300                    4.247800e+07 1.0918e+07  74.3%  31.1    0s
*  756   425              36    3.342200e+07 1.1067e+07  66.9%  28.6    0s
  1068   629 2.2289e+07    8   72 3.3422e+07 1.2252e+07  63.3%  25.4    5s
* 2281   848              53    3.341320e+07 2.2247e+07  33.4%  41.0    9s
  3052  1074 2.4653e+07   40   69 3.3413e+07 2.2350e+07  33.1%  43.6   10s
H 3196  1122                    3.329920e+07 2.2351e+07  32.9%  44.2   10s
H 4001  1362                    3.307970e+07 2.2452e+07  32.1%  46.6   11s
* 4196  1275              53    3.282660e+07 2.2455e+07  31.6%  46.7   11s
  5830  1572 infeasible   38      3.2827e+07 2.2696e+07  30.9%  51.3   15s
  9531  2009 2.3388e+07   41   45 3.2827e+07 2.3072e+07  29.7%  55.3   20s
 12055  2046     cutoff   35      3.2827e+07 2.3251e+07  29.2%  59.4   25s
 14786  1712 infeasible   42      3.2827e+07 2.3541e+07  28.3%  62.6   30s
 16956  1136     cutoff   40      3.2827e+07 2.4017e+07  26.8%  65.1   35s
 21060  1174 3.2392e+07   39   19 3.2827e+07 3.2343e+07  1.47%  60.8   40s
 26413  1217 3.2529e+07   28   12 3.2827e+07 3.2480e+07  1.06%  56.0   45s

Cutting planes:
  Learned: 11
  Gomory: 6
  Cover: 393
  Implied bound: 460
  Clique: 16
  MIR: 84
  Flow cover: 186
  GUB cover: 19
  Zero half: 68

Explored 31135 nodes (1647465 simplex iterations) in 49.58 seconds
Thread count was 4 (of 4 available processors)

Optimal solution found (tolerance 1.00e-04)
Best objective 3.282660000000e+07, best bound 3.282660000000e+07, gap 0.0%
k_c1	90000.0
k_c10	1000000.0
k_c2	30000.0
k_c3	120000.0
k_c4	180000.0
k_c5	210000.0
k_c6	170000.0
k_c7	20000.0
k_c8	220000.0
k_c9	1000000.0
k_dN	0.0
o_1	0.0
o_10	0.0
o_2	0.0
o_3	0.0
o_4	0.0
o_5	0.0
o_6	0.0
o_7	1.0
o_8	0.0
o_9	0.0
p_1	0.0
p_10	0.0
p_2	0.0
p_3	0.0
p_4	1.0
p_5	0.0
p_6	0.0
p_7	1.0
p_8	0.0
p_9	0.0
phi_c1	5901.0
phi_c10	40420.0
phi_c2	2114.0
phi_c3	20391.0
phi_c4	0.0
phi_c5	27502.0
phi_c6	17239.0
phi_c7	0.0
phi_c8	24805.0
phi_c9	32606.0
phi_dN	0.0
pi_c1	0.0
pi_c10	0.0
pi_c2	0.0
pi_c3	0.0
pi_c4	100000.0
pi_c5	0.0
pi_c6	0.0
pi_c7	50000.0
pi_c8	0.0
pi_c9	0.0
pi_dN	0.0
tauD_c1	595850.0
tauD_c10	50000.0
tauD_c2	650000.0
tauD_c3	687400.0
tauD_c4	400000.0
tauD_c5	168275.0
tauD_c6	450000.0
tauD_c7	823600.0
tauD_c8	250000.0
tauD_c9	100000.0
tauD_d0	0.0
tauD_dN	1000000.0
tauS_c1	900950.0
tauS_c10	884200.0
tauS_c2	912100.0
tauS_c3	87300.0
tauS_c4	510325.0
tauS_c5	13600.0
tauS_c6	865925.0
tauS_c7	648900.0
tauS_c8	864100.0
tauS_c9	855000.0
tauS_d0	0.0
tauS_dN	921800.0
x_c10_c5	1.0
x_c1_c2	1.0
x_c2_dN	1.0
x_c3_c7	1.0
x_c4_c3	1.0
x_c5_c4	1.0
x_c6_c1	1.0
x_c7_dN	1.0
x_c8_c6	1.0
x_c9_c8	1.0
x_d0_c10	1.0
x_d0_c9	1.0
z_c4_c7	1.0
z_c7_dN	1.0
z_d0_c4	1.0
